lbl,CUST NO.,READY TIME,XCOORD.,YCOORD.,DEMAND,DUE DATE,SERVICE TIME
4,57,53,21,48,10,197,90
4,118,95,21,44,20,200,90
4,83,175,17,43,10,308,90
4,143,299,16,39,20,372,90
4,176,368,16,38,20,486,90
4,36,457,17,37,30,579,90
4,33,527,18,38,30,692,90
4,121,649,19,37,20,754,90
4,165,748,19,39,10,838,90
4,188,830,20,39,10,939,90
4,108,909,22,38,20,1043,90
